
Gurobi 12.0.3 (win64, gurobi_cl) logging started Mon Aug 18 19:20:04 2025

Set parameter Username
Set parameter LicenseID to value 2696438
Set parameter LogFile to value "gurobi.log"
Using license file C:\Users\Paulo Victor\gurobi.lic
Academic license - for non-commercial use only - expires 2026-08-18
